Set parameter TokenServer to value "hpc-licenses.hpcc.usc.edu"
Set parameter TimeLimit to value 3600
Gurobi Optimizer version 9.5.1 build v9.5.1rc2 (linux64)
Thread count: 20 physical cores, 20 logical processors, using up to 20 threads
Optimize a model with 6007 rows, 4529 columns and 24534 nonzeros
Model fingerprint: 0x32a5077d
Variable types: 4506 continuous, 23 integer (23 binary)
Coefficient statistics:
  Matrix range     [1e+00, 1e+00]
  Objective range  [2e-04, 1e+00]
  Bounds range     [1e+00, 1e+00]
  RHS range        [1e+00, 2e+02]
Found heuristic solution: objective 279.0627894
Presolve removed 1520 rows and 1515 columns
Presolve time: 0.08s
Presolved: 4487 rows, 3014 columns, 21975 nonzeros
Variable types: 2994 continuous, 20 integer (20 binary)

Root relaxation: objective 2.907692e+02, 3002 iterations, 0.14 seconds (0.13 work units)

    Nodes    |    Current Node    |     Objective Bounds      |     Work
 Expl Unexpl |  Obj  Depth IntInf | Incumbent    BestBd   Gap | It/Node Time

     0     0  290.76922    0    2  279.06279  290.76922  4.19%     -    0s
     0     0  290.64223    0    2  279.06279  290.64223  4.15%     -    0s
     0     0  290.38865    0    2  279.06279  290.38865  4.06%     -    0s
     0     0  290.33780    0    2  279.06279  290.33780  4.04%     -    0s
     0     0  290.31312    0    2  279.06279  290.31312  4.03%     -    0s
H    0     0                     279.4664336  290.31312  3.88%     -    0s
     0     0  289.06377    0    2  279.46643  289.06377  3.43%     -    0s
     0     0  289.06377    0    2  279.46643  289.06377  3.43%     -    0s
     0     0  288.94478    0    2  279.46643  288.94478  3.39%     -    0s
     0     0  288.88007    0    2  279.46643  288.88007  3.37%     -    0s
     0     0  288.88007    0    2  279.46643  288.88007  3.37%     -    0s
     0     2  288.88007    0    2  279.46643  288.88007  3.37%     -    0s
*    4     2               2     288.0751366  288.76098  0.24%   394    1s
*   12     0               6     288.1288323  288.12883  0.00%   188    2s

Cutting planes:
  Gomory: 4
  MIR: 180
  Flow cover: 4
  RLT: 15
  Relax-and-lift: 18

Explored 13 nodes (5915 simplex iterations) in 2.22 seconds (0.98 work units)
Thread count was 20 (of 20 available processors)

Solution count 4: 288.129 288.075 279.466 279.063 

Optimal solution found (tolerance 1.00e-04)
Best objective 2.881288323164e+02, best bound 2.881288323164e+02, gap 0.0000%



#########node  1
V1.7
#########node  2
0.0,1.0
#########node  3
1.0,0.0


Total Solving Time 2.634207010269165
obj value 288.1288323163918
Policy Regret train (Sum) 2.0340319405192426
Best Treatment Found train (%) 82.8
treatment classification acc train (%) 76.2
Policy Regret test (Sum) 23.056351074388168
Best Treatment Found test (%) 86.09
treatment classification acc test (%) 73.76
